c FILE /home/rafael/Documents/HappySet/MIHS/inputs/happygen/output/graph_d_regular_k10_p0.2_v100_20241127_084113.txt
c SOURCE This is a d-regular graph formed for the happy graph colouring problem.
c DESCRIPTION It was generated using the problem generator of Rhyd Lewis
c
c GRAPH STATS
c Seed                             = -343149115
c Number of Nodes                  = 100
c Number of colours k              = 10
c Number of pre-assignments        = 20
c Degree of all vertices           = 6
c Density                          = 0.0606061
c 
c The degrees of nodes 1 to 100, respectively, are as follows 
c [6, 6, 6, 6, 6, 6, 6, 6, 6, 6, 6, 6, 6, 6, 6, 6, 6, 6, 6, 6, 6, 6, 6, 6, 6, 6, 
c  6, 6, 6, 6, 6, 6, 6, 6, 6, 6, 6, 6, 6, 6, 6, 6, 6, 6, 6, 6, 6, 6, 6, 6, 6, 
c  6, 6, 6, 6, 6, 6, 6, 6, 6, 6, 6, 6, 6, 6, 6, 6, 6, 6, 6, 6, 6, 6, 6, 6, 6, 
c  6, 6, 6, 6, 6, 6, 6, 6, 6, 6, 6, 6, 6, 6, 6, 6, 6, 6, 6, 6, 6, 6, 6, 6] 
c  
p edge 100 300 10
e 1 12
e 1 33
e 1 46
e 1 63
e 1 66
e 1 97
e 2 5
e 2 25
e 2 82
e 2 89
e 2 90
e 2 97
e 3 18
e 3 36
e 3 61
e 3 76
e 3 88
e 3 99
e 4 10
e 4 26
e 4 47
e 4 58
e 4 67
e 4 72
e 5 9
e 5 10
e 5 38
e 5 55
e 5 70
e 6 24
e 6 58
e 6 63
e 6 74
e 6 79
e 6 87
e 7 19
e 7 44
e 7 53
e 7 69
e 7 79
e 7 82
e 8 23
e 8 51
e 8 53
e 8 55
e 8 75
e 8 84
e 9 31
e 9 39
e 9 69
e 9 86
e 9 97
e 10 28
e 10 80
e 10 93
e 10 99
e 11 39
e 11 47
e 11 48
e 11 84
e 11 93
e 11 96
e 12 23
e 12 44
e 12 64
e 12 73
e 12 86
e 13 19
e 13 31
e 13 51
e 13 56
e 13 61
e 13 92
e 14 35
e 14 55
e 14 64
e 14 79
e 14 84
e 14 95
e 15 70
e 15 71
e 15 72
e 15 81
e 15 88
e 15 96
e 16 18
e 16 22
e 16 32
e 16 49
e 16 66
e 16 82
e 17 50
e 17 52
e 17 57
e 17 61
e 17 67
e 17 96
e 18 21
e 18 63
e 18 96
e 18 100
e 19 26
e 19 90
e 19 91
e 19 94
e 20 27
e 20 37
e 20 39
e 20 57
e 20 62
e 20 84
e 21 29
e 21 36
e 21 61
e 21 73
e 21 80
e 22 24
e 22 40
e 22 45
e 22 57
e 22 62
e 23 26
e 23 28
e 23 30
e 23 61
e 24 73
e 24 83
e 24 87
e 24 97
e 25 26
e 25 33
e 25 38
e 25 65
e 25 86
e 26 59
e 26 78
e 27 40
e 27 56
e 27 68
e 27 71
e 27 83
e 28 60
e 28 63
e 28 71
e 28 91
e 29 34
e 29 60
e 29 72
e 29 85
e 29 86
e 30 31
e 30 35
e 30 65
e 30 68
e 30 91
e 31 49
e 31 77
e 31 78
e 32 34
e 32 72
e 32 85
e 32 91
e 32 95
e 33 42
e 33 47
e 33 85
e 33 100
e 34 37
e 34 42
e 34 50
e 34 77
e 35 51
e 35 58
e 35 65
e 35 69
e 36 43
e 36 53
e 36 79
e 36 92
e 37 47
e 37 67
e 37 76
e 37 92
e 38 44
e 38 68
e 38 79
e 38 96
e 39 50
e 39 53
e 39 80
e 40 57
e 40 65
e 40 77
e 40 93
e 41 46
e 41 52
e 41 56
e 41 60
e 41 62
e 41 70
e 42 46
e 42 50
e 42 67
e 42 78
e 43 46
e 43 49
e 43 55
e 43 68
e 43 98
e 44 50
e 44 85
e 44 92
e 45 61
e 45 68
e 45 89
e 45 95
e 45 100
e 46 53
e 46 79
e 47 72
e 47 86
e 48 73
e 48 81
e 48 88
e 48 90
e 48 97
e 49 52
e 49 93
e 49 94
e 50 63
e 51 59
e 51 63
e 51 94
e 52 92
e 52 98
e 52 100
e 53 71
e 54 66
e 54 76
e 54 83
e 54 89
e 54 94
e 54 99
e 55 66
e 55 68
e 56 64
e 56 66
e 56 67
e 57 71
e 57 90
e 58 74
e 58 81
e 58 82
e 59 69
e 59 73
e 59 81
e 59 95
e 60 65
e 60 82
e 60 87
e 62 80
e 62 91
e 62 95
e 64 74
e 64 93
e 64 98
e 65 92
e 66 70
e 67 74
e 69 78
e 69 87
e 70 83
e 70 85
e 71 98
e 72 98
e 73 77
e 74 90
e 74 94
e 75 76
e 75 82
e 75 85
e 75 91
e 75 97
e 76 80
e 76 83
e 77 84
e 77 89
e 78 83
e 78 87
e 80 94
e 81 89
e 81 99
e 84 99
e 86 93
e 87 89
e 88 95
e 88 98
e 88 99
e 90 100
e 96 100
n 3 5
n 4 8
n 13 7
n 16 6
n 22 6
n 25 10
n 28 3
n 32 6
n 39 9
n 47 8
n 50 9
n 60 3
n 64 1
n 71 3
n 74 1
n 78 2
n 83 2
n 84 3
n 93 1
n 100 4
